<number of tasks>
29

<cycle time>
36

<task times>
1 7
2 19
3 15
4 5
5 12
6 10
7 8
8 16
9 2
10 6
11 21
12 10
13 9
14 4
15 14
16 7
17 14
18 17
19 10
20 16
21 1
22 9
23 25
24 14
25 14
26 2
27 10
28 7
29 20

<precedence relations>
1,3
1,25
2,6
2,26
3,4
4,5
5,8
5,13
6,8
7,9
7,12
7,25
8,11
8,16
9,10
10,14
10,15
11,17
12,15
13,17
14,16
15,19
16,18
17,20
18,22
19,21
20,23
21,22
22,23
23,24
23,28
24,29
25,29
26,27
27,29
28,29

<setup times forward>
1,2:2
1,6:1
1,9:2
1,14:2
1,15:2
1,19:1
1,21:2
1,26:2
1,27:2
2,1:2
2,3:2
2,4:1
2,5:1
2,6:3
2,7:2
2,10:2
2,12:2
2,13:1
2,15:4
2,19:1
2,25:2
2,26:4
3,2:2
3,4:1
3,6:1
3,9:2
3,14:2
3,15:2
3,19:1
3,21:2
3,26:2
3,27:2
4,2:1
4,6:2
4,7:1
4,9:1
4,10:1
4,12:1
4,14:1
4,15:3
4,21:1
4,25:1
4,26:3
4,27:3
5,2:1
5,6:2
5,7:1
5,8:2
5,9:1
5,10:1
5,12:1
5,14:1
5,15:3
5,21:1
5,25:1
5,26:3
5,27:3
6,1:1
6,3:1
6,4:2
6,5:2
6,7:1
6,9:3
6,10:1
6,12:1
6,13:2
6,14:3
6,15:1
6,19:2
6,21:3
6,25:1
6,26:1
6,27:1
7,2:2
7,4:1
7,5:1
7,6:1
7,8:1
7,9:2
7,11:2
7,13:1
7,17:2
7,20:2
7,26:2
7,27:2
8,7:1
8,9:3
8,10:1
8,11:1
8,12:1
8,13:2
8,14:3
8,15:1
8,16:1
8,19:2
8,21:3
8,25:1
8,26:1
8,27:1
9,1:2
9,3:2
9,4:1
9,5:1
9,6:3
9,8:3
9,10:2
9,11:4
9,12:2
9,13:1
9,25:2
9,26:4
9,27:4
10,2:2
10,4:1
10,5:1
10,6:1
10,8:1
10,11:2
10,13:1
10,14:2
10,15:2
10,17:2
10,20:2
10,26:2
10,27:2
11,7:2
11,9:4
11,10:2
11,12:2
11,13:3
11,14:4
11,17:4
11,18:2
11,19:3
11,21:4
11,22:1
11,25:2
12,2:2
12,4:1
12,5:1
12,6:1
12,8:1
12,9:2
12,11:2
12,13:1
12,14:2
12,15:2
12,16:2
12,17:2
12,20:2
12,26:2
12,27:2
13,2:1
13,6:2
13,7:1
13,8:2
13,9:1
13,10:1
13,11:3
13,12:1
13,14:1
13,15:3
13,16:3
13,17:1
13,18:1
13,21:1
13,22:2
13,25:1
13,26:3
13,27:3
14,1:2
14,3:2
14,4:1
14,5:1
14,6:3
14,8:3
14,11:4
14,12:2
14,13:1
14,15:4
14,16:4
14,19:1
14,25:2
14,26:4
14,27:4
15,1:2
15,2:4
15,3:2
15,4:3
15,5:3
15,6:1
15,8:1
15,13:3
15,14:4
15,17:4
15,18:2
15,19:3
15,20:4
15,25:2
16,12:2
16,13:3
16,17:4
16,18:2
16,19:3
16,20:4
16,21:4
16,25:2
17,7:2
17,10:2
17,12:2
17,15:4
17,16:4
17,18:2
17,19:1
17,22:3
17,25:2
17,26:4
17,27:4
18,11:2
18,13:1
18,15:2
18,17:2
18,19:1
18,20:2
18,21:2
18,22:1
18,26:2
18,27:2
19,1:1
19,2:1
19,3:1
19,6:2
19,8:2
19,11:3
19,14:1
19,16:3
19,17:1
19,18:1
19,20:1
19,21:1
19,25:1
19,26:3
19,27:3
20,7:2
20,10:2
20,12:2
20,15:4
20,16:4
20,18:2
20,19:1
20,22:3
20,25:2
20,26:4
20,27:4
21,1:2
21,3:2
21,4:1
21,5:1
21,6:3
21,8:3
21,11:4
21,13:1
21,16:4
21,18:2
21,22:3
21,25:2
21,26:4
21,27:4
22,11:1
22,13:2
22,17:3
22,20:3
22,23:3
22,25:1
22,26:1
22,27:1
23,24:2
23,25:2
23,26:4
23,27:4
23,28:1
24,26:2
24,27:2
24,28:1
24,29:2
25,2:2
25,4:1
25,5:1
25,6:1
25,8:1
25,9:2
25,11:2
25,13:1
25,14:2
25,15:2
25,16:2
25,17:2
25,19:1
25,20:2
25,21:2
25,22:1
25,23:2
25,26:2
25,27:2
25,28:1
25,29:2
26,1:2
26,3:2
26,4:3
26,5:3
26,6:1
26,7:2
26,8:1
26,9:4
26,10:2
26,12:2
26,13:3
26,14:4
26,17:4
26,18:2
26,19:3
26,20:4
26,21:4
26,22:1
26,23:4
26,24:2
26,25:2
26,28:3
27,1:2
27,3:2
27,4:3
27,5:3
27,6:1
27,7:2
27,8:1
27,9:4
27,10:2
27,12:2
27,13:3
27,14:4
27,17:4
27,18:2
27,19:3
27,20:4
27,21:4
27,22:1
27,23:4
27,24:2
27,25:2
27,28:3
28,24:1
28,25:1
28,26:3
28,27:3
28,29:3

<setup times backward>
1,1:5
1,2:3
1,6:6
1,7:5
1,9:3
1,10:5
1,12:5
1,14:3
1,15:7
1,19:4
1,21:3
1,26:7
1,27:7
2,1:7
2,2:5
2,3:7
2,4:6
2,5:6
2,7:7
2,9:5
2,10:7
2,12:7
2,13:6
2,14:5
2,15:9
2,19:6
2,21:5
2,25:7
3,1:5
3,2:3
3,3:5
3,6:6
3,7:5
3,9:3
3,10:5
3,12:5
3,14:3
3,15:7
3,19:4
3,21:3
3,25:5
3,26:7
3,27:7
4,1:6
4,2:4
4,3:6
4,4:5
4,6:7
4,7:6
4,9:4
4,10:6
4,12:6
4,14:4
4,15:8
4,19:5
4,21:4
4,25:6
4,26:8
4,27:8
5,1:6
5,2:4
5,3:6
5,4:5
5,5:5
5,6:7
5,7:6
5,9:4
5,10:6
5,12:6
5,14:4
5,15:8
5,19:5
5,21:4
5,25:6
5,26:8
5,27:8
6,1:4
6,2:2
6,3:4
6,4:3
6,5:3
6,6:5
6,7:4
6,9:2
6,10:4
6,12:4
6,13:3
6,14:2
6,15:6
6,19:3
6,21:2
6,25:4
6,26:6
6,27:6
7,1:5
7,2:3
7,3:5
7,4:4
7,5:4
7,6:6
7,7:5
7,8:6
7,11:7
7,13:4
7,17:3
7,20:3
7,26:7
7,27:7
8,1:4
8,2:2
8,3:4
8,4:3
8,5:3
8,6:5
8,7:4
8,8:5
8,9:2
8,10:4
8,12:4
8,13:3
8,14:2
8,15:6
8,19:3
8,21:2
8,25:4
8,26:6
8,27:6
9,1:7
9,2:5
9,3:7
9,4:6
9,5:6
9,6:8
9,7:7
9,8:8
9,9:5
9,11:9
9,12:7
9,13:6
9,17:5
9,20:5
9,25:7
9,26:9
9,27:9
10,1:5
10,2:3
10,3:5
10,4:4
10,5:4
10,6:6
10,7:5
10,8:6
10,9:3
10,10:5
10,11:7
10,12:5
10,13:4
10,17:3
10,20:3
10,25:5
10,26:7
10,27:7
11,1:3
11,2:1
11,3:3
11,4:2
11,5:2
11,6:4
11,7:3
11,8:4
11,9:1
11,10:3
11,11:5
11,12:3
11,13:2
11,14:1
11,15:5
11,16:5
11,18:3
11,19:2
11,21:1
11,22:4
11,25:3
11,26:5
11,27:5
12,1:5
12,2:3
12,3:5
12,4:4
12,5:4
12,6:6
12,7:5
12,8:6
12,9:3
12,10:5
12,11:7
12,12:5
12,13:4
12,14:3
12,16:7
12,17:3
12,18:5
12,20:3
12,25:5
12,26:7
12,27:7
13,1:6
13,2:4
13,3:6
13,4:5
13,5:5
13,6:7
13,7:6
13,8:7
13,9:4
13,10:6
13,11:8
13,12:6
13,13:5
13,14:4
13,15:8
13,16:8
13,18:6
13,19:5
13,21:4
13,22:7
13,25:6
13,26:8
13,27:8
14,1:7
14,2:5
14,3:7
14,4:6
14,5:6
14,6:8
14,7:7
14,8:8
14,9:5
14,10:7
14,11:9
14,12:7
14,13:6
14,14:5
14,15:9
14,17:5
14,19:6
14,20:5
14,21:5
14,25:7
14,26:9
14,27:9
15,1:3
15,2:1
15,3:3
15,4:2
15,5:2
15,6:4
15,7:3
15,8:4
15,9:1
15,10:3
15,11:5
15,12:3
15,13:2
15,14:1
15,15:5
15,16:5
15,17:1
15,18:3
15,20:1
15,25:3
15,26:5
15,27:5
16,1:3
16,2:1
16,3:3
16,4:2
16,5:2
16,6:4
16,7:3
16,8:4
16,9:1
16,10:3
16,11:5
16,12:3
16,13:2
16,14:1
16,15:5
16,16:5
16,17:1
16,19:2
16,20:1
16,21:1
16,25:3
16,26:5
16,27:5
17,1:7
17,2:5
17,3:7
17,4:6
17,5:6
17,6:8
17,7:7
17,8:8
17,9:5
17,10:7
17,11:9
17,12:7
17,13:6
17,14:5
17,15:9
17,16:9
17,17:5
17,18:7
17,19:6
17,21:5
17,22:8
17,25:7
17,26:9
17,27:9
18,1:5
18,2:3
18,3:5
18,4:4
18,5:4
18,6:6
18,7:5
18,8:6
18,9:3
18,10:5
18,11:7
18,12:5
18,13:4
18,14:3
18,15:7
18,16:7
18,17:3
18,18:5
18,19:4
18,20:3
18,21:3
18,25:5
18,26:7
18,27:7
19,1:6
19,2:4
19,3:6
19,4:5
19,5:5
19,6:7
19,7:6
19,8:7
19,9:4
19,10:6
19,11:8
19,12:6
19,13:5
19,14:4
19,15:8
19,16:8
19,17:4
19,18:6
19,19:5
19,20:4
19,25:6
19,26:8
19,27:8
20,1:7
20,2:5
20,3:7
20,4:6
20,5:6
20,6:8
20,7:7
20,8:8
20,9:5
20,10:7
20,11:9
20,12:7
20,13:6
20,14:5
20,15:9
20,16:9
20,17:5
20,18:7
20,19:6
20,20:5
20,21:5
20,22:8
20,25:7
20,26:9
20,27:9
21,1:7
21,2:5
21,3:7
21,4:6
21,5:6
21,6:8
21,7:7
21,8:8
21,9:5
21,10:7
21,11:9
21,12:7
21,13:6
21,14:5
21,15:9
21,16:9
21,17:5
21,18:7
21,19:6
21,20:5
21,21:5
21,25:7
21,26:9
21,27:9
22,1:4
22,2:2
22,3:4
22,4:3
22,5:3
22,6:5
22,7:4
22,8:5
22,9:2
22,10:4
22,11:6
22,12:4
22,13:3
22,14:2
22,15:6
22,16:6
22,17:2
22,18:4
22,19:3
22,20:2
22,21:2
22,22:5
22,25:4
22,26:6
22,27:6
23,1:7
23,2:5
23,3:7
23,4:6
23,5:6
23,6:8
23,7:7
23,8:8
23,9:5
23,10:7
23,11:9
23,12:7
23,13:6
23,14:5
23,15:9
23,16:9
23,17:5
23,18:7
23,19:6
23,20:5
23,21:5
23,22:8
23,23:5
23,25:7
23,26:9
23,27:9
24,1:5
24,2:3
24,3:5
24,4:4
24,5:4
24,6:6
24,7:5
24,8:6
24,9:3
24,10:5
24,11:7
24,12:5
24,13:4
24,14:3
24,15:7
24,16:7
24,17:3
24,18:5
24,19:4
24,20:3
24,21:3
24,22:6
24,23:3
24,24:5
24,25:5
24,26:7
24,27:7
24,28:4
25,1:5
25,2:3
25,3:5
25,4:4
25,5:4
25,6:6
25,7:5
25,8:6
25,9:3
25,10:5
25,11:7
25,12:5
25,13:4
25,14:3
25,15:7
25,16:7
25,17:3
25,18:5
25,19:4
25,20:3
25,21:3
25,22:6
25,23:3
25,24:5
25,25:5
25,26:7
25,27:7
25,28:4
26,1:3
26,2:1
26,3:3
26,4:2
26,5:2
26,6:4
26,7:3
26,8:4
26,9:1
26,10:3
26,11:5
26,12:3
26,13:2
26,14:1
26,15:5
26,16:5
26,17:1
26,18:3
26,19:2
26,20:1
26,21:1
26,22:4
26,23:1
26,24:3
26,25:3
26,26:5
26,28:2
27,1:3
27,2:1
27,3:3
27,4:2
27,5:2
27,6:4
27,7:3
27,8:4
27,9:1
27,10:3
27,11:5
27,12:3
27,13:2
27,14:1
27,15:5
27,16:5
27,17:1
27,18:3
27,19:2
27,20:1
27,21:1
27,22:4
27,23:1
27,24:3
27,25:3
27,26:5
27,27:5
27,28:2
28,1:6
28,2:4
28,3:6
28,4:5
28,5:5
28,6:7
28,7:6
28,8:7
28,9:4
28,10:6
28,11:8
28,12:6
28,13:5
28,14:4
28,15:8
28,16:8
28,17:4
28,18:6
28,19:5
28,20:4
28,21:4
28,22:7
28,23:4
28,24:6
28,25:6
28,26:8
28,27:8
28,28:5
29,1:3
29,2:1
29,3:3
29,4:2
29,5:2
29,6:4
29,7:3
29,8:4
29,9:1
29,10:3
29,11:5
29,12:3
29,13:2
29,14:1
29,15:5
29,16:5
29,17:1
29,18:3
29,19:2
29,20:1
29,21:1
29,22:4
29,23:1
29,24:3
29,25:3
29,26:5
29,27:5
29,28:2
29,29:5

<end>

<optimal SALBP-1 value>
10


<rand seed>
467321153

